189534.68,46.02,57.07
193794.66,45.01,55.82
185376.44,47.05,58.35
175357.08,49.74,61.68
193359.19,45.11,55.94
192311.9,45.36,56.25
192565.07,45.3,56.17
202626.98,43.05,53.38
159537.58,54.67,67.8
167575.52,52.05,64.55
177899.67,49.03,60.8
173515.15,50.27,62.34
180530.88,48.32,59.92
201122.49,43.37,53.78
180718.23,48.27,59.85
172093.95,50.69,62.85
181853.31,47.97,59.48
173921.86,50.15,62.19
167438.56,52.09,64.6
179174.76,48.68,60.37
